NAME: ./prFile/tspFile/tsp_file59.tsp
COMMENT: TSP file generated by Python
TYPE: TSP
DIMENSION: 40
EDGE_WEIGHT_TYPE: EUC_2D
NODE_COORD_SECTION
1 67 13
2 67 42
3 52 89
4 66 44
5 75 60
6 44 5
7 68 93
8 58 27
9 33 27
10 70 48
11 90 12
12 70 90
13 36 68
14 91 57
15 33 26
16 87 71
17 55 72
18 82 68
19 79 41
20 85 57
21 5 78
22 83 4
23 12 97
24 17 32
25 57 55
26 94 56
27 59 57
28 60 63
29 56 31
30 65 63
31 30 56
32 94 15
33 39 79
34 23 19
35 61 58
36 49 86
37 77 99
38 88 28
39 23 51
40 57 67
EOF
